(declare-const x0 Real)
(declare-const x1 Real)
(declare-const x2 Real)
(assert (<= 0.0 x2))
(declare-const x3 Real)
(assert (<= 0.0 x3))
(declare-const x4 Real)
(assert (<= 0.0 x4))
(declare-const x5 Real)
(assert (<= 0.0 x5))
(declare-const x6 Real)
(assert (<= 0.0 x6))
(declare-const x7 Real)
(assert (<= 0.0 x7))
(declare-const x8 Real)

(assert (<= 127.0 (+ (* 1.0 x2) (* 1.0 x8) (* x0 (exp (* (- 5.0) x1))))))
(assert (<= 151.0 (+ (* 1.0 x3) (* 1.0 x8) (* x0 (exp (* (- 3.0) x1))))))
(assert (<= 379.0 (+ (* 1.0 x4) (* 1.0 x8) (* x0 (exp (- x1))))))
(assert (<= 421.0 (+ (* 1.0 x5) (* 1.0 x8) (* x0 (exp x1)))))
(assert (<= 460.0 (+ (* 1.0 x6) (* 1.0 x8) (* x0 (exp (* 3.0 x1))))))
(assert (<= 426.0 (+ (* 1.0 x7) (* 1.0 x8) (* x0 (exp (* 5.0 x1))))))
(assert (<= (- 127.0) (+ (* 1.0 x2) (* (- 1.0) x8) (- (* x0 (exp (* (- 5.0) x1)))))))
(assert (<= (- 151.0) (+ (* 1.0 x3) (* (- 1.0) x8) (- (* x0 (exp (* (- 3.0) x1)))))))
(assert (<= (- 379.0) (+ (* 1.0 x4) (* (- 1.0) x8) (- (* x0 (exp (- x1)))))))
(assert (<= (- 421.0) (+ (* 1.0 x5) (* (- 1.0) x8) (- (* x0 (exp x1))))))
(assert (<= (- 460.0) (+ (* 1.0 x6) (* (- 1.0) x8) (- (* x0 (exp (* 3.0 x1)))))))
(assert (<= (- 426.0) (+ (* 1.0 x7) (* (- 1.0) x8) (- (* x0 (exp (* 5.0 x1)))))))

(minimize
	(+ (^ x2 2.0) (^ x3 2.0) (^ x4 2.0) (^ x5 2.0) (^ x6 2.0) (^ x7 2.0))
)
(check-sat)
(get-objectives)
(exit)

